Hf4 O8
1.0
5.040138 0.000000 0.000000
0.000000 5.074451 0.000000
0.000000 0.000000 5.269276
Hf Zr O
2 2 8
direct
0.267436 0.242569 0.033795 Hf
0.732564 0.742569 0.966205 Hf
0.267436 0.742569 0.466205 Zr
0.732564 0.242569 0.533795 Zr
0.072143 0.376847 0.367911 O
0.072143 0.876847 0.132089 O
0.459797 0.493584 0.733288 O
0.459797 0.993584 0.766712 O
0.540203 0.993584 0.266712 O
0.540203 0.493584 0.233288 O
0.927857 0.376847 0.867911 O
0.927857 0.876847 0.632089 O
