Hf4 O8
1.0
5.040138 0.000000 0.000000
0.000000 5.074451 0.000000
0.000000 0.000000 5.269276
Hf Zr O
2 2 8
direct
 0.0000000  0.0000000  0.0000000 Hf
 0.4651280  0.5000000  0.9324100 Hf
 0.0000000  0.5000000  0.4324100 Zr
 0.4651280  0.0000000  0.5000000 Zr
 0.8047070  0.1342780  0.3341160 O
 0.8047070  0.6342780  0.0982940 O
 0.1923610  0.2510150  0.6994930 O
 0.1923610  0.7510150  0.7329170 O
 0.2727670  0.7510150  0.2329170 O
 0.2727670  0.2510150  0.1994930 O
 0.6604210  0.1342780  0.8341160 O
 0.6604210  0.6342780  0.5982940 O
