# Optimize the geometry
#ionmov 2
tolmxf 1d-5
#optcell 2
## Symmetry
chkprim 0
#chkdilatmx 1
#dilatmx 1.05
#symmorphi 0
#Parameters
nstep  100
ecut 25
ecutsm 0.5
pawecutdg 25
#occopt 4
tsmear 0.04
# GGA+ U
pawxcdev 0
tolvrs   1.0d-18      # SCF stopping criterion
# Berry Phase
symmorphi 0
#kptopt1   1

acell 5.075568 5.075568 5.075568 angstrom
rprim 1.0 0.0 0.0
      0.0 1.0 0.0
      0.0 0.0 1.0


#Structural parameters

natom 12
ntypat 2
typat 1 1 1 1 2 2 2 2 2 2 2 2
znucl 72 8
xred    0.01468639   0.00727682   0.02867686
       0.01471928   0.50726440   0.46963934
       0.48442971   0.00726334   0.52865559
       0.48440335   0.50725677  -0.03037026
       0.21591687   0.26282891   0.73677628
       0.21578776   0.76296800   0.77141569
       0.28838732   0.76295254   0.27139043
       0.28829547   0.26278695   0.23674037
       0.81653312   0.16800682   0.36658800
       0.81660430   0.66786772   0.14146531
       0.68755011   0.66781666   0.64142941
       0.68769990   0.16798224   0.86656274
# Kpoint Grid
kptopt 2
ngkpt 6 6 6
nshiftk 1
shiftk 1 1 1
#chksymbreak 0  # The k point grid is not symmetric, but the calculations being for the ground-state, this is not a problem.

 pp_dirpath "$ABI_PSPDIR"
# pseudos "ATOMICDATA/Hf.GGA_PBE-JTH.xml,ATOMICDATA/Zr.GGA_PBE-JTH.xml,ATOMICDATA/O.GGA_PBE-JTH.xml"
 pseudos "pbe_s_sr/Hf.psp8,pbe_s_sr/O.psp8"
# pseudos "Pseudodojo_nc_sr_04_pw_standard_psp8/P.psp8, Pseudodojo_nc_sr_04_pw_standard_psp8/Al.psp8"
##############################################################
# This section is used only for regression testing of ABINIT #
##############################################################
#%%<BEGIN TEST_INFO>
#%% [setup]
#%% executable = abinit
#%% [files]
#%% files_to_test = 
#%%   tdftu_1.abo, tolnlines=  4, tolabs=  2.000e-06, tolrel=  2.000e-03, fld_options = -medium
#%% output_file = "tdftu_1.abo"
#%% [paral_info]
#%% max_nprocs = 1
#%% [extra_info]
#%% authors = Unknown
#%% keywords = DFTU, PAW
#%% description =  first run of the DFT+U tutorial
#%%<END TEST_INFO>
