# Optimize the geometry
#ionmov 2
#ndtset 2
chkprim 0
nstep  100
ecut 25
ecutsm 0.5
pawecutdg 25
tsmear 0.04
pawxcdev 0
toldfe   1.0d-10

acell 5.075568 5.075568 5.075568 angstrom
rprim 1.0 0.0 0.0
      0.0 1.0 0.0
      0.0 0.0 1.0
natom 12
ntypat 2
typat 1 1 1 1 2 2 2 2 2 2 2 2
znucl 72 8
xred   -0.00000000   0.00000000  -0.00000000
       0.00000000   0.50000000   0.50000000
       0.50000000  -0.00000000   0.50000000
       0.50000000   0.50000000   0.00000000
       0.19325224   0.30457759   0.73666153
       0.19325224   0.80457759   0.76333847
       0.30674776   0.80457759   0.26333847
       0.30674776   0.30457759   0.23666153
       0.80674776   0.19542241   0.36953478
       0.80674776   0.69542241   0.13046522
       0.69325224   0.69542241   0.63046522
       0.69325224   0.19542241   0.86953478
kptopt 2
ngkpt 6 6 6
nshiftk 1
shiftk 1 1 1

 pp_dirpath "$ABI_PSPDIR"
 pseudos "pbe_s_sr/Hf.psp8,pbe_s_sr/O.psp8"
