Hf2 O4
1.0
5.075568 0.0 0.0
0.0 5.075568 0.0
0.0 0.0 5.075568
Hf Zr O
2  2  8
direct
Hf 0.000000 0.000000 0.000000
Hf 0.500000 0.500000 0.000000
Zr 0.000000 0.500000 0.500000
Zr 0.500000 0.000000 0.500000
O 0.250000 0.250000 0.750000
O 0.250000 0.750000 0.750000 
O 0.250000 0.750000 0.250000  
O 0.250000 0.250000 0.250000  
O 0.750000 0.250000 0.250000  
O 0.750000 0.750000 0.250000  
O 0.750000 0.750000 0.750000  
O 0.750000 0.250000 0.750000  
