# Optimize the geometry
#ionmov 2
#ndtset 2
chkprim 0
nstep  100
ecut 25
ecutsm 0.5
pawecutdg 25
tsmear 0.04
pawxcdev 0
toldfe   1.0d-10

acell 5.075568 5.075568 5.075568 angstrom
rprim 1.0 0.0 0.0
      0.0 1.0 0.0
      0.0 0.0 1.0
natom 12
ntypat 2
typat 1 1 1 1 2 2 2 2 2 2 2 2
znucl 72 8
xred    0.00000000  -0.01939886  -0.06119518
      -0.00003558   0.48062663   0.49999573
       0.46722963  -0.01938627   0.43883533
       0.46724873   0.48062538   0.00003481
       0.27439281   0.23032182   0.70608054
       0.27443851   0.73025993   0.73275497
       0.19291721   0.73022592   0.23277362
       0.19290284   0.23027326   0.20609418
       0.66094473   0.33927671   0.33897608
       0.66084347   0.83958224   0.09990846
       0.80650063   0.83961573   0.60002879
       0.80625834   0.33922702   0.83910028
kptopt 2
ngkpt 6 6 6
nshiftk 1
shiftk 1 1 1

 pp_dirpath "$ABI_PSPDIR"
 pseudos "pbe_s_sr/Hf.psp8,pbe_s_sr/O.psp8"
