# Optimize the geometry
#ionmov 2
tolmxf 1d-5
#optcell 2
## Symmetry
ndtset 2
chkprim 0
#chkdilatmx 1
#dilatmx 1.05
#symmorphi 0
#Parameters
nstep  100
ecut 25
ecutsm 0.5
pawecutdg 25
#occopt 4
tsmear 0.04
# GGA+ U
pawxcdev 0
tolvrs   1.0d-18      # SCF stopping criterion
# Berry Phase
symmorphi 0
berryopt1 -1
rfdir1 1 1 1
#kptopt1   1
toldfe1   1.0d-10
nband1   48
               # Dataset #2 ground state in electric field *******
nband2    48
#kptopt2   2
berryopt2 4
toldfe2   1.0d-10
getwfk2   1
efield 0.0 0.0 0.0
# DFT+U
#usepawu   1
#lpawu   2 -1 -1
#upawu  5.0 0.0 0.0 eV

#CELL PARAMETERS

acell 5.075568 5.075568 5.075568 angstrom
rprim 1.0 0.0 0.0
      0.0 1.0 0.0
      0.0 0.0 1.0


#Structural parameters

natom 12
ntypat 2
typat 1 1 1 1 2 2 2 2 2 2 2 2
znucl 72 8
xred    0.04517921  -0.00032501  -0.00200249
       0.51360117   0.49967494  -0.06232062
       0.04520053   0.49967725   0.43766284
       0.51363145  -0.00031693   0.49800248
       0.31803902   0.25025273   0.20256407
       0.24084856   0.25029344   0.70255265
       0.84831768   0.64829044   0.10150514
       0.71054706   0.64828049   0.60152383
       0.31808298   0.75027593   0.23314129
       0.24082142   0.75031156   0.73313837
       0.84817188   0.14853730   0.33405948
       0.71063539   0.14847926   0.83413775
# Kpoint Grid
kptopt 2
ngkpt 6 6 6
nshiftk 1
shiftk 1 1 1
#chksymbreak 0  # The k point grid is not symmetric, but the calculations being for the ground-state, this is not a problem.

 pp_dirpath "$ABI_PSPDIR"
# pseudos "ATOMICDATA/Hf.GGA_PBE-JTH.xml,ATOMICDATA/Zr.GGA_PBE-JTH.xml,ATOMICDATA/O.GGA_PBE-JTH.xml"
 pseudos "pbe_s_sr/Hf.psp8,pbe_s_sr/O.psp8"
# pseudos "Pseudodojo_nc_sr_04_pw_standard_psp8/P.psp8, Pseudodojo_nc_sr_04_pw_standard_psp8/Al.psp8"
##############################################################
# This section is used only for regression testing of ABINIT #
##############################################################
#%%<BEGIN TEST_INFO>
#%% [setup]
#%% executable = abinit
#%% [files]
#%% files_to_test = 
#%%   tdftu_1.abo, tolnlines=  4, tolabs=  2.000e-06, tolrel=  2.000e-03, fld_options = -medium
#%% output_file = "tdftu_1.abo"
#%% [paral_info]
#%% max_nprocs = 1
#%% [extra_info]
#%% authors = Unknown
#%% keywords = DFTU, PAW
#%% description =  first run of the DFT+U tutorial
#%%<END TEST_INFO>
