# Optimize the geometry
#ionmov 2
tolmxf 1d-5
#optcell 2
## Symmetry
ndtset 2
chkprim 0
#chkdilatmx 1
#dilatmx 1.05
#symmorphi 0
#Parameters
nstep  100
ecut 25
ecutsm 0.5
pawecutdg 25
#occopt 4
tsmear 0.04
# GGA+ U
pawxcdev 0
tolvrs   1.0d-18      # SCF stopping criterion
# Berry Phase
symmorphi 0
berryopt1 -1
rfdir1 1 1 1
#kptopt1   1
toldfe1   1.0d-10
nband1   48
               # Dataset #2 ground state in electric field *******
nband2    48
#kptopt2   2
berryopt2 4
toldfe2   1.0d-10
getwfk2   1
efield -1.0085967350826438e-05 -0.0018984924568835743 -6.716280377366517e-06
# DFT+U
#usepawu   1
#lpawu   2 -1 -1
#upawu  5.0 0.0 0.0 eV

#CELL PARAMETERS

acell 5.075568 5.075568 5.075568 angstrom
rprim 1.0 0.0 0.0
      0.0 1.0 0.0
      0.0 0.0 1.0


#Structural parameters

natom 12
ntypat 2
typat 1 1 1 1 2 2 2 2 2 2 2 2
znucl 72 8
xred    0.04671008  -0.00579066  -0.00351882
       0.51642704   0.49418929  -0.06256594
       0.04674297   0.49419692   0.43744368
       0.51645340  -0.00580414   0.49645993
       0.31784376   0.24854275   0.19964969
       0.24540230   0.24857170   0.69965195
       0.84613521   0.65349718   0.10437463
       0.71701816   0.65343311   0.60430508
       0.31787275   0.74856899   0.23429029
       0.24533605   0.74859746   0.73430081
       0.84600117   0.15374961   0.32948786
       0.71723081   0.15373804   0.82944786
# Kpoint Grid
kptopt 2
ngkpt 6 6 6
nshiftk 1
shiftk 1 1 1
#chksymbreak 0  # The k point grid is not symmetric, but the calculations being for the ground-state, this is not a problem.

 pp_dirpath "$ABI_PSPDIR"
# pseudos "ATOMICDATA/Hf.GGA_PBE-JTH.xml,ATOMICDATA/Zr.GGA_PBE-JTH.xml,ATOMICDATA/O.GGA_PBE-JTH.xml"
 pseudos "pbe_s_sr/Hf.psp8,pbe_s_sr/O.psp8"
# pseudos "Pseudodojo_nc_sr_04_pw_standard_psp8/P.psp8, Pseudodojo_nc_sr_04_pw_standard_psp8/Al.psp8"
##############################################################
# This section is used only for regression testing of ABINIT #
##############################################################
#%%<BEGIN TEST_INFO>
#%% [setup]
#%% executable = abinit
#%% [files]
#%% files_to_test = 
#%%   tdftu_1.abo, tolnlines=  4, tolabs=  2.000e-06, tolrel=  2.000e-03, fld_options = -medium
#%% output_file = "tdftu_1.abo"
#%% [paral_info]
#%% max_nprocs = 1
#%% [extra_info]
#%% authors = Unknown
#%% keywords = DFTU, PAW
#%% description =  first run of the DFT+U tutorial
#%%<END TEST_INFO>
