# Optimize the geometry
#ionmov 2
tolmxf 1d-5
#optcell 2
## Symmetry
ndtset 2
chkprim 0
#chkdilatmx 1
#dilatmx 1.05
#symmorphi 0
#Parameters
nstep  100
ecut 25
ecutsm 0.5
pawecutdg 25
#occopt 4
tsmear 0.04
# GGA+ U
pawxcdev 0
tolvrs   1.0d-18      # SCF stopping criterion
# Berry Phase
symmorphi 0
berryopt1 -1
rfdir1 1 1 1
#kptopt1   1
toldfe1   1.0d-10
nband1   48
               # Dataset #2 ground state in electric field *******
nband2    48
#kptopt2   2
berryopt2 4
toldfe2   1.0d-10
getwfk2   1
efield -9.284810786548236e-06 -0.002588283272483073 5.230147815140345e-07
# DFT+U
#usepawu   1
#lpawu   2 -1 -1
#upawu  5.0 0.0 0.0 eV

#CELL PARAMETERS

acell 5.075568 5.075568 5.075568 angstrom
rprim 1.0 0.0 0.0
      0.0 1.0 0.0
      0.0 0.0 1.0


#Structural parameters

natom 12
ntypat 2
typat 1 1 1 1 2 2 2 2 2 2 2 2
znucl 72 8
xred    0.04570722  -0.00602665  -0.01330183
       0.51764847   0.49400668  -0.06929896
       0.04568761   0.49398805   0.43069999
       0.51763701  -0.00600326   0.48671077
       0.31420992   0.25141755   0.18805891
       0.24911259   0.25136459   0.68807123
       0.83940290   0.66609839   0.10254535
       0.72408051   0.66620476   0.60257351
       0.31418866   0.75138380   0.22936488
       0.24914659   0.75133191   0.72933786
       0.83952622   0.16592349   0.31497115
       0.72393320   0.16601674   0.81499671
# Kpoint Grid
kptopt 2
ngkpt 6 6 6
nshiftk 1
shiftk 1 1 1
#chksymbreak 0  # The k point grid is not symmetric, but the calculations being for the ground-state, this is not a problem.

 pp_dirpath "$ABI_PSPDIR"
# pseudos "ATOMICDATA/Hf.GGA_PBE-JTH.xml,ATOMICDATA/Zr.GGA_PBE-JTH.xml,ATOMICDATA/O.GGA_PBE-JTH.xml"
 pseudos "pbe_s_sr/Hf.psp8,pbe_s_sr/O.psp8"
# pseudos "Pseudodojo_nc_sr_04_pw_standard_psp8/P.psp8, Pseudodojo_nc_sr_04_pw_standard_psp8/Al.psp8"
##############################################################
# This section is used only for regression testing of ABINIT #
##############################################################
#%%<BEGIN TEST_INFO>
#%% [setup]
#%% executable = abinit
#%% [files]
#%% files_to_test = 
#%%   tdftu_1.abo, tolnlines=  4, tolabs=  2.000e-06, tolrel=  2.000e-03, fld_options = -medium
#%% output_file = "tdftu_1.abo"
#%% [paral_info]
#%% max_nprocs = 1
#%% [extra_info]
#%% authors = Unknown
#%% keywords = DFTU, PAW
#%% description =  first run of the DFT+U tutorial
#%%<END TEST_INFO>
