title
1.0
        5.0999999046         0.0000000000         0.0000000000
        0.0000000000         5.0999999046         0.0000000000
        0.0000000000         0.0000000000         5.0999999046
   Hf   Zr    O
    2    2    8
Direct
 0.0000000  0.0000000  0.0000000 Hf
 0.5000000  0.5000000  0.0000000 Hf
-0.0000000  0.5000000  0.5000000 Zr
 0.5000000 -0.0000000  0.5000000 Zr
 0.2500000  0.2500000  0.2500000 O
 0.2500000  0.2500000  0.7500000 O
 0.2500000  0.7500000  0.2500000 O
 0.2500000  0.7500000  0.7500000 O
 0.7500000  0.2500000  0.2500000 O
 0.7500000  0.2500000  0.7500000 O
 0.7500000  0.7500000  0.2500000 O
 0.7500000  0.7500000  0.7500000 O
