title
1.0
        5.0999999046         0.0000000000         0.0000000000
        0.0000000000         5.0999999046         0.0000000000
        0.0000000000         0.0000000000         5.0999999046
   Hf   Zr    O
    2    2    8
Direct
     0.000000000         0.000000000         0.000000000 Hf 
     0.500000000         0.500000000         0.000000000 Hf
    -0.000000000         0.500000000         0.500000000 Zr
     0.500000000        -0.000000000         0.500000000 Zr
     0.250000000         0.250000000         0.250000000 O 
     0.250000000         0.250000000         0.749999977 O
     0.250000000         0.749999977         0.250000000 O
     0.250000000         0.749999977         0.749999977 O
     0.749999977         0.250000000         0.250000000 O
     0.749999977         0.250000000         0.749999977 O
     0.749999977         0.749999977         0.250000000 O
     0.749999977         0.749999977         0.749999977 O
