title
1.
5.100000000 0.000000000 0.000000000
0.000000000 5.100000000 0.000000000
0.000000000 0.000000000 5.100000000
Hf Zr O
2 2 8
Cartesian
5.100000000 5.100000000 5.100000000    Hf
2.550000000 2.550000000 5.100000000    Hf
5.100000000 2.550000000 2.550000000    Zr
2.550000000 5.100000000 2.550000000    Zr
1.275000000 1.275000000 1.275000000    O
1.275000000 1.275000000 3.825000000    O
1.275000000 3.825000000 1.275000000    O
1.275000000 3.825000000 3.825000000    O
3.825000000 1.275000000 1.275000000    O
3.825000000 1.275000000 3.825000000    O
3.825000000 3.825000000 1.275000000    O
3.825000000 3.825000000 3.825000000    O

