HfO2                                    
   1.00000000000000     
     4.9755680000000000    0.0000000000000000    0.0000000000000000
     0.0000000000000000    4.9755680000000000    0.0000000000000000
     0.0000000000000000    0.0000000000000000    4.9755680000000000
   Hf   O 
     4     8
Direct
  0.0182087436352062  0.0398145577034840  0.0321809698076108
  0.0182087436352062  0.5398145577034840  0.4678190301923893
  0.4817912563647937  0.0398145577034840  0.5321809698076110
  0.4817912563647937  0.5398145577034840 -0.0321809698076108
  0.2073837696566853  0.2872855541371544  0.7419973112750862
  0.2073837696566852  0.7872855541371546  0.7580026887249138
  0.2926162303433148  0.7872855541371546  0.2580026887249137
  0.2926162303433148  0.2872855541371544  0.2419973112750862
  0.8276374971017246  0.1728998881593614  0.3745126397819799
  0.8276374971017246  0.6728998881593613  0.1254873602180201
  0.6723625028982754  0.6728998881593613  0.6254873602180200
  0.6723625028982754  0.1728998881593614  0.8745126397819800
 
  0.00000000E+00  0.00000000E+00  0.00000000E+00
  0.00000000E+00  0.00000000E+00  0.00000000E+00
  0.00000000E+00  0.00000000E+00  0.00000000E+00
  0.00000000E+00  0.00000000E+00  0.00000000E+00
  0.00000000E+00  0.00000000E+00  0.00000000E+00
  0.00000000E+00  0.00000000E+00  0.00000000E+00
  0.00000000E+00  0.00000000E+00  0.00000000E+00
  0.00000000E+00  0.00000000E+00  0.00000000E+00
  0.00000000E+00  0.00000000E+00  0.00000000E+00
  0.00000000E+00  0.00000000E+00  0.00000000E+00
  0.00000000E+00  0.00000000E+00  0.00000000E+00
  0.00000000E+00  0.00000000E+00  0.00000000E+00
