# Linear response calculation for AlP
# Perturbation: atomic displacements, electric fields, & strains
# Finite difference calculation of the ddk

# DFPT calculations require a series of computations to 
# to derive all necessary information
ndtset 3
chkprim 0
#DATASET1 : scf calculation: GS WF in the BZ
#********************************************
   prtden1    1
    prtwf1    1
   kptopt1    2
   toldfe1    1.0d-13
    nstep1    100

#DATASET2 : non scf calculation: GS WF in the whole BZ
#*****************************************************
   getden2    1
   kptopt2    2
     iscf2   -2
   getwfk2    1
   tolwfr2    1.0d-22
 berryopt2   -2 # berryopt -2 provides the DDK perturbation through a finite
                # difference formula, roughly |du/dk> = (|u_k+dk> - |u_k-dk>)/(2*dk)
                # It would also be possible to use rfddk 1 here, and compute the DDK
                # wavefunctions from within the DFPT formalism
    rfdir2    1 1 1
    prtwf2    1

#DATASET3 : linear response to atomic displacements
#**************************************************
   getwfk3    2
    rfdir3    1 1 1
   rfphon3    1
  rfatpol3    1 12
   rfstrs3    3
   rfelfd3    3
   getddk3    2
   tolvrs3    1.0d-13
   kptopt3    2
    nstep3    100

#Definition of the unit cell
# these cell parameters were derived from a relaxation run done with the
# current ecut and kpt values. The current ecut value used is very low but
# is done to speed the calculations.
#
acell 5.075568 5.075568 5.075568 angstrom
rprim 1.0 0.0 0.0
      0.0 1.0 0.0
      0.0 0.0 1.0

symmorphi 0
pawxcdev 0
#Definition of the atom types and pseudopotentials
natom 12
ntypat 2
typat 1 1 1 1 2 2 2 2 2 2 2 2
znucl 72 8
 pp_dirpath "$ABI_PSPDIR"
# pseudos "ATOMICDATA/Hf.GGA_PBE-JTH.xml,ATOMICDATA/Zr.GGA_PBE-JTH.xml,ATOMICDATA/O.GGA_PBE-JTH.xml"
 pseudos "pbe_s_sr/Hf.psp8,pbe_s_sr/O.psp8"
# pseudos "Pseudodojo_nc_sr_04_pw_standard_psp8/P.psp8, Pseudodojo_nc_sr_04_pw_standard_psp8/Al.psp8"

#atomic positions. 
xred   0.000000 0.000000 0.000000
       0.000000 0.500000 0.500000
       0.500000 0.000000 0.500000
       0.500000 0.500000 0.000000
       0.250000 0.250000 0.750000
       0.250000 0.750000 0.750000 
       0.250000 0.750000 0.250000  
       0.250000 0.250000 0.250000  
       0.750000 0.250000 0.250000  
       0.750000 0.750000 0.250000  
       0.750000 0.750000 0.750000  
       0.750000 0.250000 0.750000  

ecut 25
ecutsm 0.5
pawecutdg 30
nband  48
dilatmx 1.05
# KPOINTS
ngkpt 4 4 4 
nshiftk 1 # this Monkhorst-Pack shift pattern is used so that the symmetry of the shifted grid
          # is correct. A gamma-centered grid would also have the correct symmetry but would be
          # less efficient.
shiftk 1.0 1.0 1.0

# by default, don't save files, only save files within each
# data set as needed
prtwf 0
prtden 0
prteig 0

##############################################################
# This section is used only for regression testing of ABINIT #
##############################################################
#%%<BEGIN TEST_INFO>
#%% [setup]
#%% executable = abinit
#%% test_chain = tffield_2.abi, tffield_3.abi
#%% [files]
#%% files_to_test = 
#%%   tffield_2.abo, tolnlines=  2, tolabs=  5.000e-07, tolrel=  3.000e-04, fld_options=-medium
#%% [paral_info]
#%% max_nprocs = 2
#%% [extra_info]
#%% authors = J. Zwanziger, M. Veithen
#%% keywords = NC, DFPT
#%% description = 
#%%   Linear response calculation for AlP
#%%   Perturbation: atomic displacements, strains, electric fields
#%%   Finite difference calculation of the ddk
#%%<END TEST_INFO>
