ndtset 1
chkprim 0
acell 5.075568 5.075568 5.075568 angstrom
rprim 1.0 0.0 0.0
      0.0 1.0 0.0
      0.0 0.0 1.0

symmorphi 0
pawxcdev 0
natom 12
ntypat 2
typat 1 1 1 1 2 2 2 2 2 2 2 2
znucl 72 8
amu 91.22 15.99
 pp_dirpath "$ABI_PSPDIR"
# pseudos "ATOMICDATA/Hf.GGA_PBE-JTH.xml,ATOMICDATA/Zr.GGA_PBE-JTH.xml,ATOMICDATA/O.GGA_PBE-JTH.xml"
 pseudos "pbe_s_sr/Hf.psp8,pbe_s_sr/O.psp8"
# pseudos "Pseudodojo_nc_sr_04_pw_standard_psp8/P.psp8, Pseudodojo_nc_sr_04_pw_standard_psp8/Al.psp8"

#atomic positions. 
xred   0.000000 0.000000 0.000000
       0.500000 0.500000 0.000000
       0.000000 0.500000 0.500000
       0.500000 0.000000 0.500000
       0.250000 0.250000 0.750000
       0.250000 0.750000 0.750000 
       0.250000 0.750000 0.250000  
       0.250000 0.250000 0.250000  
       0.750000 0.250000 0.250000  
       0.750000 0.750000 0.250000  
       0.750000 0.750000 0.750000  
       0.750000 0.250000 0.750000  

ecut 25
ecutsm 0.5
pawecutdg 30
nband  48
dilatmx 1.05
# KPOINTS
ngkpt 4 4 4 
nshiftk 1 # this Monkhorst-Pack shift pattern is used so that the symmetry of the shifted grid
          # is correct. A gamma-centered grid would also have the correct symmetry but would be
          # less efficient.
shiftk 1.0 1.0 1.0

# by default, don't save files, only save files within each
# data set as needed
prtwf 0
prtden 0
prteig 0

##############################################################
# This section is used only for regression testing of ABINIT #
##############################################################
#%%<BEGIN TEST_INFO>
#%% [setup]
#%% executable = abinit
#%% test_chain = tffield_2.abi, tffield_3.abi
#%% [files]
#%% files_to_test = 
#%%   tffield_2.abo, tolnlines=  2, tolabs=  5.000e-07, tolrel=  3.000e-04, fld_options=-medium
#%% [paral_info]
#%% max_nprocs = 2
#%% [extra_info]
#%% authors = J. Zwanziger, M. Veithen
#%% keywords = NC, DFPT
#%% description = 
#%%   Linear response calculation for AlP
#%%   Perturbation: atomic displacements, strains, electric fields
#%%   Finite difference calculation of the ddk
#%%<END TEST_INFO>
