HfO2                                    
   1.00000000000000     
     5.0755679999999996    0.0000000000000000    0.0000000000000000
     0.0000000000000000    5.0755679999999996    0.0000000000000000
     0.0000000000000000    0.0000000000000000    5.0755679999999996
   Hf   O 
     4     8
Direct
  0.0166147362706696  0.0361079328068696  0.0318820180006957
  0.0166147362706696  0.5361079328068697  0.4681179819993043
  0.4833852637293304  0.0361079328068696  0.5318820180006959
  0.4833852637293304  0.5361079328068697 -0.0318820180006957
  0.2127123264203953  0.2828451546624796  0.7364884613604832
  0.2127123264203953  0.7828451546624791  0.7635115386395168
  0.2872876735796047  0.7828451546624791  0.2635115386395169
  0.2872876735796047  0.2828451546624796  0.2364884613604833
  0.8190187920609165  0.1810469125306509  0.3652159720220896
  0.8190187920609165  0.6810469125306510  0.1347840279779103
  0.6809812079390835  0.6810469125306510  0.6347840279779103
  0.6809812079390835  0.1810469125306509  0.8652159720220897
 
  0.00000000E+00  0.00000000E+00  0.00000000E+00
  0.00000000E+00  0.00000000E+00  0.00000000E+00
  0.00000000E+00  0.00000000E+00  0.00000000E+00
  0.00000000E+00  0.00000000E+00  0.00000000E+00
  0.00000000E+00  0.00000000E+00  0.00000000E+00
  0.00000000E+00  0.00000000E+00  0.00000000E+00
  0.00000000E+00  0.00000000E+00  0.00000000E+00
  0.00000000E+00  0.00000000E+00  0.00000000E+00
  0.00000000E+00  0.00000000E+00  0.00000000E+00
  0.00000000E+00  0.00000000E+00  0.00000000E+00
  0.00000000E+00  0.00000000E+00  0.00000000E+00
  0.00000000E+00  0.00000000E+00  0.00000000E+00
