SYSTEM = MoSe2
LWAVE=.FALSE.
LCHARG=.FALSE.

ISTART=0
ICHARG=2
IALGO=48
PREC=Accurate

LPLANE = .TRUE.
NPAR = 6
#LREAL=AUTO
LSCALU = .FALSE.
NSIM = 4

NSW = 800
NELM = 120
IBRION = 2
POTIM  = 0.3
EDIFF  = 1E-5
EDIFFG = -0.01
ISIF=2
AMIN=0.01

#ISPIN=2

ENCUT=500
ISMEAR=0
SIGMA=0.05



