HfO2 
1.0000 
5.075568 0.000 0.000
0.000 5.075568 0.000
0.000 0.000 5.075568
Hf O 
4 8
Direct
  -0.00000000   0.00000000  -0.00000000
  0.00000000   0.50000000   0.50000000
  0.50000000  -0.00000000   0.50000000
  0.50000000   0.50000000   0.00000000
  0.25000000   0.30457759   0.73666153
  0.25000000   0.80457759   0.76333847
  0.25000000   0.80457759   0.26333847
  0.25000000   0.30457759   0.23666153
  0.75000000   0.19542241   0.36953478
  0.75000000   0.69542241   0.13046522
  0.75000000   0.69542241   0.63046522
  0.75000000   0.19542241   0.86953478
