# Optimize the geometry
#ionmov 2
#ndtset 2
chkprim 0
nstep  100
ecut 25
ecutsm 0.5
pawecutdg 25
tsmear 0.04
pawxcdev 0
toldfe   1.0d-10

acell 5.075568 5.075568 5.075568 angstrom
rprim 1.0 0.0 0.0
      0.0 1.0 0.0
      0.0 0.0 1.0
natom 12
ntypat 2
typat 1 1 1 1 2 2 2 2 2 2 2 2
znucl 72 8
xred    0.00000000  -0.00000000   0.00000001
      -0.00003558   0.50002549   0.43880054
       0.46722963   0.00001259   0.50003053
       0.46724873   0.50002424  -0.06116038
       0.17689223   0.24709630   0.70608054
       0.17693794   0.74703442   0.73275497
       0.29041778   0.74700041   0.23277362
       0.29040341   0.24704775   0.20609418
       0.79043518   0.13774081   0.33897608
       0.79033392   0.63804634   0.09990846
       0.67701018   0.63807984   0.60002879
       0.67676789   0.13769113   0.83910028
kptopt 2
ngkpt 6 6 6
nshiftk 1
shiftk 1 1 1

 pp_dirpath "$ABI_PSPDIR"
 pseudos "pbe_s_sr/Hf.psp8,pbe_s_sr/O.psp8"
