# Optimize the geometry
#ionmov 2
#ndtset 2
chkprim 0
nstep  100
ecut 25
ecutsm 0.5
pawecutdg 25
tsmear 0.04
pawxcdev 0
toldfe   1.0d-10

acell 5.075568 5.075568 5.075568 angstrom
rprim 1.0 0.0 0.0
      0.0 1.0 0.0
      0.0 0.0 1.0
natom 12
ntypat 2
typat 1 1 1 1 2 2 2 2 2 2 2 2
znucl 72 8
xred    0.00000000  -0.00000000   0.00000001
      -0.00003558   0.50002549   0.43880054
       0.46722963   0.00001259   0.50003053
       0.46724873   0.50002424  -0.06116038
       0.19288717   0.19251871   0.70608054
       0.19293287   0.69245682   0.73275497
       0.27442285   0.69242281   0.23277362
       0.27440847   0.19247015   0.20609418
       0.80643011   0.19231841   0.33897608
       0.80632885   0.69262394   0.09990846
       0.66101525   0.69265743   0.60002879
       0.66077296   0.19226872   0.83910028
kptopt 2
ngkpt 6 6 6
nshiftk 1
shiftk 1 1 1

 pp_dirpath "$ABI_PSPDIR"
 pseudos "pbe_s_sr/Hf.psp8,pbe_s_sr/O.psp8"
