# Optimize the geometry
#ionmov 2
#ndtset 2
chkprim 0
nstep  100
ecut 25
ecutsm 0.5
pawecutdg 25
tsmear 0.04
pawxcdev 0
toldfe   1.0d-10

acell 5.075568 5.075568 5.075568 angstrom
rprim 1.0 0.0 0.0
      0.0 1.0 0.0
      0.0 0.0 1.0
natom 12
ntypat 2
typat 1 1 1 1 2 2 2 2 2 2 2 2
znucl 72 8
xred    0.00000000  -0.00000000   0.00000001
      -0.00003558   0.50002549   0.43880054
       0.46722963   0.00001259   0.50003053
       0.46724873   0.50002424  -0.06116038
       0.19288717   0.24709630   0.65298238
       0.19293287   0.74703442   0.78585312
       0.27442285   0.74700041   0.28587178
       0.27440847   0.24704775   0.15299602
       0.80643011   0.13774081   0.28587793
       0.80632885   0.63804634   0.15300661
       0.66101525   0.63807984   0.65312695
       0.66077296   0.13769113   0.78600213
kptopt 2
ngkpt 6 6 6
nshiftk 1
shiftk 1 1 1

 pp_dirpath "$ABI_PSPDIR"
 pseudos "pbe_s_sr/Hf.psp8,pbe_s_sr/O.psp8"
