Hf2 O4
1.0
5.081733 0.000000 0.000000
0.000000 5.081733 0.000000
0.000000 0.000000 5.224673
Hf Zr O
2 2 8
direct
 0.0000000  0.0000000  0.0000000 Hf
 0.5000000  0.5000000  0.0000000 Hf
 0.0000000  0.5000000  0.5000000 Zr
 0.5000000  0.0000000  0.5000000 Zr
 0.2500000  0.2500000  0.1953080 O
 0.2500000  0.2500000  0.6953080 O
 0.7500000  0.7500000  0.1953080 O
 0.7500000  0.7500000  0.6953080 O
 0.2500000  0.7500000  0.3046920 O
 0.2500000  0.7500000  0.8046920 O
 0.7500000  0.2500000  0.3046920 O
 0.7500000  0.2500000  0.8046920 O
