Hf2 O4
1.0
5.081733 0.000000 0.000000
0.000000 5.081733 0.000000
0.000000 0.000000 5.224673
Hf Zr O
2 2 8
direct
0.000000 0.000000 0.000000 Hf 
0.500000 0.500000 0.000000 Hf
0.000000 0.500000 0.500000 Zr
0.500000 0.000000 0.500000 Zr
0.250000 0.250000 0.195308 O  
0.250000 0.250000 0.695308 O
0.750000 0.750000 0.195308 O
0.750000 0.750000 0.695308 O
0.250000 0.750000 0.304692 O
0.250000 0.750000 0.804692 O
0.750000 0.250000 0.304692 O
0.750000 0.250000 0.804692 O
