# Optimize the geometry
#ionmov 2
#ndtset 2
chkprim 0
nstep  100
ecut 25
ecutsm 0.5
pawecutdg 25
tsmear 0.04
pawxcdev 0
toldfe   1.0d-10

acell 5.075568 5.075568 5.075568 angstrom
rprim 1.0 0.0 0.0
      0.0 1.0 0.0
      0.0 0.0 1.0
natom 12
ntypat 2
typat 1 1 1 1 2 2 2 2 2 2 2 2
znucl 72 8
xred   -0.00000000   0.00000000  -0.01179773
       0.00000000   0.50000000   0.51179773
       0.50000000  -0.00000000   0.48820227
       0.50000000   0.50000000   0.01179773
       0.25000000   0.25000000   0.73606838
       0.25000000   0.75000000   0.76393162
       0.25000000   0.75000000   0.26393162
       0.25000000   0.25000000   0.23606838
       0.75000000   0.25000000   0.26393162
       0.75000000   0.75000000   0.23606838
       0.75000000   0.75000000   0.73606838
       0.75000000   0.25000000   0.76393162
kptopt 2
ngkpt 6 6 6
nshiftk 1
shiftk 1 1 1

 pp_dirpath "$ABI_PSPDIR"
 pseudos "pbe_s_sr/Hf.psp8,pbe_s_sr/O.psp8"
