# Optimize the geometry
#ionmov 2
tolmxf 1d-5
#optcell 2
## Symmetry
chkprim 0
#chkdilatmx 1
#dilatmx 1.05
#symmorphi 0
#Parameters
nstep  100
ecut 25
ecutsm 0.5
pawecutdg 25
#occopt 4
tsmear 0.04
# GGA+ U
pawxcdev 0
tolvrs   1.0d-18      # SCF stopping criterion
# Berry Phase
symmorphi 0
#kptopt1   1

acell 5.075568 5.075568 5.075568 angstrom
rprim 1.0 0.0 0.0
      0.0 1.0 0.0
      0.0 0.0 1.0


#Structural parameters

natom 12
ntypat 2
typat 1 1 1 1 2 2 2 2 2 2 2 2
znucl 72 8
xred    0.01561117   0.00908541   0.02951961
       0.01561343   0.50909613   0.46869973
       0.48345514   0.00909810   0.52953779
       0.48343793   0.50909219  -0.03127191
       0.21250002   0.25941452   0.73985508
       0.21249358   0.75947381   0.76846828
       0.29201033   0.75939571   0.26852992
       0.29195995   0.25937621   0.23990206
       0.82304232   0.15402737   0.37210799
       0.82312942   0.65396808   0.13619809
       0.68141121   0.65395358   0.63624507
       0.68138094   0.15397308   0.87216963
# Kpoint Grid
kptopt 2
ngkpt 6 6 6
nshiftk 1
shiftk 1 1 1
#chksymbreak 0  # The k point grid is not symmetric, but the calculations being for the ground-state, this is not a problem.

 pp_dirpath "$ABI_PSPDIR"
# pseudos "ATOMICDATA/Hf.GGA_PBE-JTH.xml,ATOMICDATA/Zr.GGA_PBE-JTH.xml,ATOMICDATA/O.GGA_PBE-JTH.xml"
 pseudos "pbe_s_sr/Hf.psp8,pbe_s_sr/O.psp8"
# pseudos "Pseudodojo_nc_sr_04_pw_standard_psp8/P.psp8, Pseudodojo_nc_sr_04_pw_standard_psp8/Al.psp8"
##############################################################
# This section is used only for regression testing of ABINIT #
##############################################################
#%%<BEGIN TEST_INFO>
#%% [setup]
#%% executable = abinit
#%% [files]
#%% files_to_test = 
#%%   tdftu_1.abo, tolnlines=  4, tolabs=  2.000e-06, tolrel=  2.000e-03, fld_options = -medium
#%% output_file = "tdftu_1.abo"
#%% [paral_info]
#%% max_nprocs = 1
#%% [extra_info]
#%% authors = Unknown
#%% keywords = DFTU, PAW
#%% description =  first run of the DFT+U tutorial
#%%<END TEST_INFO>
