# Optimize the geometry
#ionmov 2
#ndtset 2
chkprim 0
nstep  100
ecut 25
ecutsm 0.5
pawecutdg 25
tsmear 0.04
pawxcdev 0
toldfe   1.0d-10

acell 5.075568 5.075568 5.075568 angstrom
rprim 1.0 0.0 0.0
      0.0 1.0 0.0
      0.0 0.0 1.0
natom 12
ntypat 2
typat 1 1 1 1 2 2 2 2 2 2 2 2
znucl 72 8
xred    0.01637151   0.00524174   0.03059761
       0.01637151   0.50524174   0.46940239
       0.48362849   0.00524174   0.53059758
       0.48362849   0.50524174  -0.03059758
       0.20924718   0.27961553   0.73666153
       0.20924718   0.77961553   0.76333847
       0.29075282   0.77961553   0.26333847
       0.29075282   0.27961553   0.23666153
       0.82274269   0.17046034   0.36953478
       0.82274269   0.67046034   0.13046522
       0.67725731   0.67046034   0.63046522
       0.67725731   0.17046034   0.86953478
kptopt 2
ngkpt 6 6 6
nshiftk 1
shiftk 1 1 1

 pp_dirpath "$ABI_PSPDIR"
 pseudos "pbe_s_sr/Hf.psp8,pbe_s_sr/O.psp8"
