# Optimize the geometry
#ionmov 2
tolmxf 1d-5
#optcell 2
## Symmetry
chkprim 0
#chkdilatmx 1
#dilatmx 1.05
#symmorphi 0
#Parameters
nstep  100
ecut 25
ecutsm 0.5
pawecutdg 25
#occopt 4
tsmear 0.04
# GGA+ U
pawxcdev 0
tolvrs   1.0d-18      # SCF stopping criterion
# Berry Phase
symmorphi 0
#kptopt1   1

acell 5.075568 5.075568 5.075568 angstrom
rprim 1.0 0.0 0.0
      0.0 1.0 0.0
      0.0 0.0 1.0


#Structural parameters

natom 12
ntypat 2
typat 1 1 1 1 2 2 2 2 2 2 2 2
znucl 72 8
xred    0.01468644   0.00727683   0.02868368
       0.01471924   0.50726440   0.46963253
       0.48442968   0.00726334   0.52866240
       0.48440338   0.50725677  -0.03037707
       0.20188833   0.26289851   0.73675834
       0.20174889   0.76289839   0.77140304
       0.30241587   0.76286972   0.27140308
       0.30233435   0.26286976   0.23675832
       0.80249425   0.16793721   0.36657535
       0.80257575   0.66793733   0.14144737
       0.70158899   0.66789947   0.64144735
       0.70172845   0.16789943   0.86657539
# Kpoint Grid
kptopt 2
ngkpt 6 6 6
nshiftk 1
shiftk 1 1 1
#chksymbreak 0  # The k point grid is not symmetric, but the calculations being for the ground-state, this is not a problem.

 pp_dirpath "$ABI_PSPDIR"
# pseudos "ATOMICDATA/Hf.GGA_PBE-JTH.xml,ATOMICDATA/Zr.GGA_PBE-JTH.xml,ATOMICDATA/O.GGA_PBE-JTH.xml"
 pseudos "pbe_s_sr/Hf.psp8,pbe_s_sr/O.psp8"
# pseudos "Pseudodojo_nc_sr_04_pw_standard_psp8/P.psp8, Pseudodojo_nc_sr_04_pw_standard_psp8/Al.psp8"
##############################################################
# This section is used only for regression testing of ABINIT #
##############################################################
#%%<BEGIN TEST_INFO>
#%% [setup]
#%% executable = abinit
#%% [files]
#%% files_to_test = 
#%%   tdftu_1.abo, tolnlines=  4, tolabs=  2.000e-06, tolrel=  2.000e-03, fld_options = -medium
#%% output_file = "tdftu_1.abo"
#%% [paral_info]
#%% max_nprocs = 1
#%% [extra_info]
#%% authors = Unknown
#%% keywords = DFTU, PAW
#%% description =  first run of the DFT+U tutorial
#%%<END TEST_INFO>
