# Optimize the geometry
#ionmov 2
tolmxf 1d-5
#optcell 2
## Symmetry
chkprim 0
#chkdilatmx 1
#dilatmx 1.05
#symmorphi 0
#Parameters
nstep  100
ecut 25
ecutsm 0.5
pawecutdg 25
#occopt 4
tsmear 0.04
# GGA+ U
pawxcdev 0
tolvrs   1.0d-18      # SCF stopping criterion
# Berry Phase
symmorphi 0
#kptopt1   1

acell 5.075568 5.075568 5.075568 angstrom
rprim 1.0 0.0 0.0
      0.0 1.0 0.0
      0.0 0.0 1.0


#Structural parameters

natom 12
ntypat 2
typat 1 1 1 1 2 2 2 2 2 2 2 2
znucl 72 8
xred    0.01590953   0.00968385   0.02969932
       0.01587408   0.50970935   0.46848439
       0.48313926   0.00969644   0.52972984
       0.48315830   0.50970808  -0.03147652
       0.19554758   0.25840780   0.74086459
       0.19569156   0.75840797   0.76754155
       0.30892759   0.75836659   0.26754151
       0.30897106   0.25836661   0.24086459
       0.80913679   0.14923618   0.37381543
       0.80909337   0.64923602   0.13474586
       0.69552582   0.64922801   0.63474585
       0.69538181   0.14922799   0.87381540
# Kpoint Grid
kptopt 2
ngkpt 6 6 6
nshiftk 1
shiftk 1 1 1
#chksymbreak 0  # The k point grid is not symmetric, but the calculations being for the ground-state, this is not a problem.

 pp_dirpath "$ABI_PSPDIR"
# pseudos "ATOMICDATA/Hf.GGA_PBE-JTH.xml,ATOMICDATA/Zr.GGA_PBE-JTH.xml,ATOMICDATA/O.GGA_PBE-JTH.xml"
 pseudos "pbe_s_sr/Hf.psp8,pbe_s_sr/O.psp8"
# pseudos "Pseudodojo_nc_sr_04_pw_standard_psp8/P.psp8, Pseudodojo_nc_sr_04_pw_standard_psp8/Al.psp8"
##############################################################
# This section is used only for regression testing of ABINIT #
##############################################################
#%%<BEGIN TEST_INFO>
#%% [setup]
#%% executable = abinit
#%% [files]
#%% files_to_test = 
#%%   tdftu_1.abo, tolnlines=  4, tolabs=  2.000e-06, tolrel=  2.000e-03, fld_options = -medium
#%% output_file = "tdftu_1.abo"
#%% [paral_info]
#%% max_nprocs = 1
#%% [extra_info]
#%% authors = Unknown
#%% keywords = DFTU, PAW
#%% description =  first run of the DFT+U tutorial
#%%<END TEST_INFO>
